NAME: I5354-n24-k6
COMMENT : (Fake et al, No of trucks: 6, Optimal value: )
TYPE : CVRP
DIMENSION : 24
EDGE_WEIGHT_TYPE : EUC_2D
CAPACITY : 12
NODE_COORD_SECTION
1 478 895
2 974 885
3 142 647
4 672 475
5 298 811
6 739 683
7 684 921
8 981 23
9 23 747
10 606 46
11 675 617
12 205 383
13 309 216
14 574 679
15 174 950
16 789 499
17 862 947
18 83 72
19 196 641
20 393 571
21 971 971
22 457 82
23 496 376
24 503 785
DEMAND_SECTION
1 0
2 4
3 4
4 1
5 1
6 4
7 3
8 3
9 1
10 4
11 1
12 3
13 1
14 2
15 1
16 2
17 3
18 3
19 4
20 4
21 1
22 2
23 4
24 2
DEPOT_SECTION
 1
 -1
 EOF 